NAME          
ROWS
 N  OBJ
 L  c1
 L  c2
COLUMNS
    MARKER    'MARKER'                 'INTORG'
    x[1]      c1        782
    x[1]      c2        337
    x[1]      OBJ       -949
    x[2]      c1        91
    x[2]      c2        177
    x[2]      OBJ       -723
    x[3]      c1        242
    x[3]      c2        992
    x[3]      OBJ       -425
    x[4]      c1        598
    x[4]      c2        310
    x[4]      OBJ       -708
    x[5]      c1        864
    x[5]      c2        536
    x[5]      OBJ       -111
    x[6]      c1        37
    x[6]      c2        215
    x[6]      OBJ       -342
    x[7]      c1        653
    x[7]      c2        512
    x[7]      OBJ       -472
    x[8]      c1        364
    x[8]      c2        774
    x[8]      OBJ       -335
    x[9]      c1        812
    x[9]      c2        252
    x[9]      OBJ       -595
    x[10]     c1        496
    x[10]     c2        895
    x[10]     OBJ       -561
RHS
    rhs       c1        2470
    rhs       c2        2500
RANGES
BOUNDS
 LO bounds    x[1]      0
 PL bounds    x[1]
 LO bounds    x[2]      0
 PL bounds    x[2]
 LO bounds    x[3]      0
 PL bounds    x[3]
 LO bounds    x[4]      0
 PL bounds    x[4]
 LO bounds    x[5]      0
 PL bounds    x[5]
 LO bounds    x[6]      0
 PL bounds    x[6]
 LO bounds    x[7]      0
 PL bounds    x[7]
 LO bounds    x[8]      0
 PL bounds    x[8]
 LO bounds    x[9]      0
 PL bounds    x[9]
 LO bounds    x[10]     0
 PL bounds    x[10]
ENDATA
